p cnf 80 190
a 8 2 15 9 3 16 1 7 14 21 28 32 40 36 59 52 44 48 0
d 69 40 59 0
d 53 44 48 0
d 4 2 3 0
d 5 1 2 3 0
d 6 1 2 3 0
d 10 8 9 0
d 11 7 8 9 0
d 12 7 8 9 0
d 13 1 2 3 7 8 9 0
d 17 15 16 0
d 18 14 15 16 0
d 19 14 15 16 0
d 20 1 2 3 7 8 9 14 15 16 0
d 22 1 7 0
d 23 2 3 0
d 24 1 7 2 3 0
d 25 21 1 7 2 3 0
d 26 21 1 7 2 3 0
d 27 1 2 3 7 8 9 14 15 16 21 0
d 29 28 2 3 0
d 30 28 2 3 0
d 31 1 2 3 7 8 9 14 15 16 21 28 0
d 33 32 8 9 0
d 34 32 8 9 0
d 35 1 2 3 7 8 9 14 15 16 21 28 32 0
d 37 36 15 16 0
d 38 36 15 16 0
d 39 1 2 3 7 8 9 14 15 16 21 28 32 36 0
d 41 40 36 0
d 42 40 36 0
d 43 1 2 3 7 8 9 14 15 16 21 28 32 36 40 0
d 45 44 28 0
d 46 44 28 0
d 47 1 2 3 7 8 9 14 15 16 21 28 32 36 40 44 0
d 49 48 32 0
d 50 48 32 0
d 51 1 2 3 7 8 9 14 15 16 21 28 32 36 40 44 48 0
d 54 44 48 2 3 0
d 55 44 48 2 3 0
d 56 52 44 48 2 3 0
d 57 52 44 48 2 3 0
d 58 1 2 3 7 8 9 14 15 16 21 28 32 36 40 44 48 52 0
d 60 59 52 0
d 61 59 52 0
d 62 1 2 3 7 8 9 14 15 16 21 28 32 36 40 44 48 52 59 0
d 63 8 9 0
d 64 8 9 0
d 65 28 32 0
d 66 1 7 0
d 67 28 32 1 7 0
d 68 8 9 28 32 1 7 0
d 70 14 21 0
d 71 40 59 14 21 0
d 72 8 9 28 32 1 7 40 59 14 21 0
d 73 36 52 0
d 74 15 16 0
d 75 36 52 15 16 0
d 76 14 21 0
d 77 14 21 15 16 0
d 78 36 52 15 16 14 21 0
d 79 8 9 28 32 1 7 40 59 14 21 36 52 15 16 0
d 80 1 2 3 7 8 9 14 15 16 21 28 32 36 40 44 48 52 59 0
4 -2 3 0
4 2 -3 0
-4 -2 -3 0
-4 2 3 0
5 -1 -4 0
5 1 4 0
-5 -1 4 0
-5 1 -4 0
6 5 0
-6 -5 0
10 -8 9 0
10 8 -9 0
-10 -8 -9 0
-10 8 9 0
11 -7 -10 0
11 7 10 0
-11 -7 10 0
-11 7 -10 0
12 11 0
-12 -11 0
13 -6 0
13 -12 0
-13 6 12 0
17 -15 16 0
17 15 -16 0
-17 -15 -16 0
-17 15 16 0
18 -14 -17 0
18 14 17 0
-18 -14 17 0
-18 14 -17 0
19 18 0
-19 -18 0
20 -13 0
20 -19 0
-20 13 19 0
-22 1 0
-22 7 0
22 -1 -7 0
-23 2 0
-23 3 0
23 -2 -3 0
24 -22 0
24 -23 0
-24 22 23 0
25 -21 -24 0
25 21 24 0
-25 -21 24 0
-25 21 -24 0
26 25 0
-26 -25 0
27 -20 0
27 -26 0
-27 20 26 0
29 -28 -4 0
29 28 4 0
-29 -28 4 0
-29 28 -4 0
30 29 0
-30 -29 0
31 -27 0
31 -30 0
-31 27 30 0
33 -32 -10 0
33 32 10 0
-33 -32 10 0
-33 32 -10 0
34 33 0
-34 -33 0
35 -31 0
35 -34 0
-35 31 34 0
37 -36 -17 0
37 36 17 0
-37 -36 17 0
-37 36 -17 0
38 37 0
-38 -37 0
39 -35 0
39 -38 0
-39 35 38 0
41 -40 -36 0
41 40 36 0
-41 -40 36 0
-41 40 -36 0
42 41 0
-42 -41 0
43 -39 0
43 -42 0
-43 39 42 0
45 -44 -28 0
45 44 28 0
-45 -44 28 0
-45 44 -28 0
46 45 0
-46 -45 0
47 -43 0
47 -46 0
-47 43 46 0
49 -48 -32 0
49 48 32 0
-49 -48 32 0
-49 48 -32 0
50 49 0
-50 -49 0
51 -47 0
51 -50 0
-51 47 50 0
-54 53 0
-54 23 0
54 -53 -23 0
55 54 0
-55 -54 0
56 -52 -55 0
56 52 55 0
-56 -52 55 0
-56 52 -55 0
57 56 0
-57 -56 0
58 -51 0
58 -57 0
-58 51 57 0
60 -59 -52 0
60 59 52 0
-60 -59 52 0
-60 59 -52 0
61 60 0
-61 -60 0
62 -58 0
62 -61 0
-62 58 61 0
-63 8 0
-63 9 0
63 -8 -9 0
64 -63 -63 0
64 63 63 0
-64 -63 63 0
-64 63 -63 0
65 -28 32 0
65 28 -32 0
-65 -28 -32 0
-65 28 32 0
66 -1 7 0
66 1 -7 0
-66 -1 -7 0
-66 1 7 0
67 -65 -66 0
67 65 66 0
-67 -65 66 0
-67 65 -66 0
-68 64 0
-68 67 0
68 -64 -67 0
70 -14 21 0
70 14 -21 0
-70 -14 -21 0
-70 14 21 0
71 -69 -70 0
71 69 70 0
-71 -69 70 0
-71 69 -70 0
-72 68 0
-72 71 0
72 -68 -71 0
-73 36 0
-73 52 0
73 -36 -52 0
-74 15 0
-74 16 0
74 -15 -16 0
75 -73 0
75 -74 0
-75 73 74 0
-76 14 0
-76 21 0
76 -14 -21 0
77 -76 0
77 -74 0
-77 76 74 0
78 -75 -77 0
78 75 77 0
-78 -75 77 0
-78 75 -77 0
-79 72 0
-79 78 0
79 -72 -78 0
80 -62 0
80 -79 0
-80 62 79 0
80 0
